Read MPS format model from file dat/rmp/DER_48_2048_40.mps
Reading time = 0.19 seconds
: 2096 rows, 12432 columns, 535665 nonzeros
Gurobi Optimizer version 9.0.0 build v9.0.0rc2 (linux64)
Optimize a model with 2096 rows, 12432 columns and 535665 nonzeros
Model fingerprint: 0x57d8dbbe
Coefficient statistics:
  Matrix range     [3e-04, 1e+01]
  Objective range  [4e-01, 1e+03]
  Bounds range     [1e+04, 1e+04]
  RHS range        [1e+00, 1e+00]
Ordering time: 0.00s

Barrier statistics:
 AA' NZ     : 9.475e+04
 Factor NZ  : 1.181e+05 (roughly 7 MBytes of memory)
 Factor Ops : 6.969e+06 (less than 1 second per iteration)
 Threads    : 1

                  Objective                Residual
Iter       Primal          Dual         Primal    Dual     Compl     Time
   0   4.38871564e+08 -5.12628516e+07  3.02e+06 2.08e-02  4.05e+05     0s
   1   1.56045115e+07 -9.64713334e+06  9.16e+04 3.64e-12  1.31e+04     0s
   2   1.85415490e+06 -3.50019154e+06  1.11e+04 1.82e-12  1.77e+03     0s
   3   5.36394249e+04 -2.01601892e+06  2.49e+02 1.82e-12  1.91e+02     0s
   4   6.39981025e+03 -2.29531432e+05  4.63e-02 2.73e-12  1.89e+01     0s
   5   6.16043767e+03  2.27753437e+03  3.65e-11 3.64e-12  3.11e-01     0s
   6   6.13015459e+03  5.66901411e+03  3.27e-11 3.27e-11  3.70e-02     0s
   7   6.07888725e+03  5.94236141e+03  2.53e-11 7.28e-12  1.09e-02     0s
   8   6.06343568e+03  5.99151437e+03  2.20e-11 3.64e-12  5.76e-03     0s
   9   6.03293051e+03  6.01656463e+03  2.91e-11 2.73e-12  1.31e-03     0s
  10   6.02540540e+03  6.01959391e+03  8.14e-11 1.82e-12  4.66e-04     0s
  11   6.02399045e+03  6.02054552e+03  1.66e-10 1.82e-12  2.76e-04     0s
  12   6.02286848e+03  6.02100214e+03  1.15e-10 1.82e-12  1.50e-04     0s
  13   6.02249588e+03  6.02115602e+03  1.10e-10 1.82e-12  1.07e-04     0s
  14   6.02198353e+03  6.02137734e+03  3.48e-10 3.64e-12  4.86e-05     1s
  15   6.02186721e+03  6.02144663e+03  2.35e-10 1.82e-12  3.37e-05     1s
  16   6.02176716e+03  6.02151737e+03  5.01e-10 3.64e-12  2.00e-05     1s
  17   6.02171957e+03  6.02153372e+03  5.33e-10 1.82e-12  1.49e-05     1s
  18   6.02166748e+03  6.02154273e+03  1.03e-09 1.82e-12  1.00e-05     1s
  19   6.02163271e+03  6.02155170e+03  8.19e-10 1.82e-12  6.49e-06     1s
  20   6.02159590e+03  6.02155639e+03  1.08e-09 1.82e-12  3.17e-06     1s
  21   6.02157738e+03  6.02155831e+03  3.46e-09 1.82e-12  1.53e-06     1s
  22   6.02156923e+03  6.02155950e+03  2.25e-09 1.82e-12  7.80e-07     1s
  23   6.02156028e+03  6.02155999e+03  8.82e-09 2.73e-12  2.29e-08     1s
  24   6.02156003e+03  6.02156002e+03  1.33e-07 5.46e-12  9.48e-10     1s

Barrier solved model in 24 iterations and 0.86 seconds
Optimal objective 6.02156003e+03

Solve time: 0.860558265
Barrier iterations: 24
